FCC Si
3.9
0.5 0.5 0.0
0.0 0.5 0.5
0.5 0.0 0.5
Si
1
Direct
0.0 0.0 0.0
